Route #1: 1 50 58 62 52 23 1
Route #2: 1 36 48 67 14 66 44 6 1
Route #3: 1 8 47 35 45 60 17 46 31 1
Route #4: 1 19 29 25 59 11 7 33 37 68 43 64 1
Route #5: 1 15 63 55 22 10 49 13 53 21 3 34 1
Route #6: 1 56 20 51 26 41 39 54 40 1
Route #7: 1 32 65 28 61 5 57 16 2 1
Route #8: 1 27 18 38 42 9 12 1
Route #9: 1 30 24 4 1
cost 1479.7776416042627